
<<< setup


<<< generate

Version identifier: 22.1.1.0 | 2022-11-28 | 9160aff4d
CPXPARAM_TimeLimit                               1800
Found incumbent of value 0.000000 after 0.00 sec. (0.76 ticks)
Tried aggregator 1 time.
MIP Presolve eliminated 10100 rows and 10000 columns.
MIP Presolve modified 19800 coefficients.
Reduced MIP has 14851 rows, 10100 columns, and 49600 nonzeros.
Reduced MIP has 10000 binaries, 100 generals, 0 SOSs, and 0 indicators.
Presolve time = 0.01 sec. (29.74 ticks)
Probing time = 0.00 sec. (5.63 ticks)
Tried aggregator 1 time.
Detecting symmetries...
Reduced MIP has 14851 rows, 10100 columns, and 49600 nonzeros.
Reduced MIP has 10000 binaries, 100 generals, 0 SOSs, and 0 indicators.
Presolve time = 0.02 sec. (30.69 ticks)
Probing time = 0.00 sec. (5.61 ticks)
Clique table members: 1402.
MIP emphasis: balance optimality and feasibility.
MIP search method: dynamic search.
Parallel mode: deterministic, using up to 8 threads.
Root relaxation solution time = 0.13 sec. (277.40 ticks)

        Nodes                                         Cuts/
   Node  Left     Objective  IInf  Best Integer    Best Bound    ItCnt     Gap

*     0+    0                            0.0000     4914.0000              --- 
*     0+    0                          100.0000     4914.0000              --- 
      0     0     4614.5763  2962      100.0000     4614.5763     6874     --- 
*     0+    0                          285.0000     4614.5763              --- 
*     0+    0                          802.0000     4614.5763           475.38%
      0     0     4613.2000  2848      802.0000    Cuts: 2307     8003  475.21%
      0     0     4612.5250  3003      802.0000     Cuts: 543     9005  475.13%
      0     0     4612.2572  3085      802.0000    Cuts: 1109     9588  475.09%
*     0+    0                          829.0000     4612.2572           456.36%
      0     0        cutoff            829.0000     4612.2572     9588  456.36%
      0     0     4612.1006  3233      829.0000     Cuts: 407    10473  456.35%
      0     0     4612.1006  1198      829.0000      Cuts: 72    10782  456.35%
Detecting symmetries...
      0     0     4612.1006  1082      829.0000     Cuts: 172    11038  456.35%
*     0+    0                         1006.0000     4612.1006           358.46%
*     0+    0                         1027.0000     4612.1006           349.08%
*     0+    0                         1173.0000     4612.1006           293.19%
*     0+    0                         1495.0000     4612.1006           208.50%
      0     0        cutoff           1495.0000     4612.1006    11038  208.50%
*     0+    0                         4581.0000     4612.1006             0.68%
      0     0     4612.1006   908     4581.0000     Cuts: 180    11166    0.68%
      0     0     4612.1006   859     4581.0000      Cuts: 65    11331    0.68%
      0     0     4612.1006   753     4581.0000     Cuts: 154    11430    0.68%
      0     0     4612.1006   804     4581.0000      Cuts: 74    11489    0.68%
Detecting symmetries...
      0     2     4612.1006   804     4581.0000     4612.0667    11489    0.68%
Elapsed time = 1.91 sec. (3791.03 ticks, tree = 0.02 MB, solutions = 10)
     39    27     4606.8298   703     4581.0000     4611.7869    17796    0.67%
    141   113     4589.0000   216     4581.0000     4611.7869    34643    0.67%
    230   177     4605.4000   750     4581.0000     4611.7869    45928    0.67%
*   291   220      integral     0     4589.0000     4611.7869    47915    0.50%
    302   144     4604.5246  1243     4589.0000     4611.6852    51136    0.49%
    351   160     4611.6000   568     4589.0000     4611.5400    65596    0.49%
    439   215     4604.0000   328     4589.0000     4611.3882    71606    0.49%
    607   279     4604.0000    80     4589.0000     4611.3882    75103    0.49%
*   641   275      integral     0     4607.0000     4611.3882    76861    0.10%
    705    87     4608.0000   220     4607.0000     4611.0000    82685    0.09%
    851    28     4611.0000   279     4607.0000     4611.0000    84167    0.09%
*  1071   201      integral     0     4608.0000     4611.0000    85995    0.07%
*  1212    86      integral     0     4611.0000     4611.0000    86562    0.00%

Clique cuts applied:  3
Cover cuts applied:  12
Mixed integer rounding cuts applied:  175
Zero-half cuts applied:  45

Root node processing (before b&c):
  Real time             =    1.89 sec. (3724.46 ticks)
Parallel b&c, 8 threads:
  Real time             =    1.51 sec. (2713.59 ticks)
  Sync time (average)   =    0.36 sec.
  Wait time (average)   =    0.00 sec.
                          ------------
Total (root+branch&cut) =    3.40 sec. (6438.05 ticks)

<<< solve


OBJECTIVE: 4611

<<< post process


<<< done

